-289.0 6.0 0.0 7.0 0.0 9.0 6.0 1.0 6.0 4.0 3.0 2.0 5.0 5.0 10.0 3.0 5.0 9.0 6.0 4.0 0.0 0.0 3.0 3.0 4.0 9.0 2.0 6.0 0.0 0.0 9.0 1.0 6.0 10.0 1.0 9.0 0.0 0.0 5.0 0.0 4.0 1.0 1.0 0.0 3.0 8.0 9.0 6.0 3.0 1.0 9.0 4.0 3.0 10.0 6.0 8.0 2.0 10.0 6.0 5.0 9.0 8.0 4.0 2.0 8.0 
6.0 -305.0 1.0 9.0 4.0 3.0 6.0 7.0 3.0 6.0 1.0 8.0 5.0 8.0 5.0 8.0 5.0 4.0 10.0 4.0 7.0 2.0 10.0 4.0 8.0 6.0 8.0 7.0 8.0 6.0 2.0 5.0 2.0 3.0 8.0 5.0 5.0 10.0 4.0 8.0 10.0 8.0 5.0 5.0 2.0 3.0 9.0 5.0 3.0 8.0 8.0 5.0 1.0 1.0 6.0 5.0 0.0 0.0 0.0 0.0 0.0 0.0 0.0 0.0 0.0 
0.0 1.0 -355.0 2.0 7.0 2.0 6.0 10.0 0.0 2.0 8.0 2.0 3.0 7.0 7.0 5.0 5.0 5.0 3.0 6.0 4.0 4.0 3.0 5.0 8.0 9.0 4.0 9.0 4.0 10.0 9.0 4.0 5.0 6.0 8.0 6.0 7.0 7.0 3.0 8.0 2.0 5.0 8.0 7.0 1.0 5.0 7.0 8.0 10.0 9.0 6.0 8.0 8.0 2.0 4.0 5.0 4.0 9.0 5.0 8.0 7.0 9.0 5.0 0.0 9.0 
7.0 9.0 2.0 -316.0 10.0 3.0 6.0 10.0 3.0 6.0 2.0 3.0 5.0 5.0 4.0 9.0 5.0 0.0 6.0 4.0 5.0 6.0 7.0 6.0 3.0 0.0 6.0 9.0 9.0 9.0 5.0 9.0 0.0 0.0 6.0 6.0 1.0 10.0 8.0 6.0 0.0 10.0 6.0 2.0 0.0 4.0 6.0 0.0 7.0 10.0 0.0 2.0 6.0 7.0 10.0 3.0 0.0 6.0 7.0 0.0 9.0 3.0 2.0 6.0 0.0 
0.0 4.0 7.0 10.0 -323.0 8.0 0.0 5.0 3.0 6.0 8.0 2.0 1.0 0.0 1.0 9.0 10.0 2.0 7.0 4.0 8.0 6.0 2.0 3.0 6.0 0.0 9.0 8.0 9.0 8.0 10.0 0.0 1.0 9.0 10.0 3.0 10.0 9.0 6.0 2.0 2.0 2.0 2.0 8.0 6.0 5.0 0.0 4.0 1.0 8.0 7.0 7.0 5.0 4.0 10.0 3.0 6.0 8.0 8.0 5.0 6.0 7.0 0.0 1.0 2.0 
9.0 3.0 2.0 3.0 8.0 -328.0 0.0 7.0 7.0 2.0 9.0 1.0 3.0 3.0 10.0 0.0 7.0 3.0 9.0 8.0 5.0 4.0 9.0 2.0 2.0 6.0 5.0 1.0 10.0 6.0 2.0 4.0 3.0 1.0 7.0 2.0 8.0 5.0 3.0 5.0 3.0 9.0 0.0 7.0 10.0 4.0 8.0 7.0 10.0 9.0 8.0 6.0 2.0 9.0 5.0 5.0 7.0 3.0 0.0 2.0 8.0 10.0 0.0 7.0 5.0 
6.0 6.0 6.0 6.0 0.0 0.0 -300.0 8.0 6.0 4.0 8.0 7.0 1.0 4.0 3.0 3.0 8.0 10.0 3.0 5.0 10.0 5.0 2.0 10.0 0.0 0.0 4.0 1.0 3.0 8.0 4.0 8.0 7.0 8.0 7.0 6.0 0.0 2.0 6.0 3.0 7.0 1.0 8.0 6.0 4.0 2.0 10.0 3.0 2.0 8.0 10.0 2.0 4.0 6.0 4.0 5.0 9.0 2.0 1.0 7.0 1.0 3.0 2.0 2.0 3.0 
1.0 7.0 10.0 10.0 5.0 7.0 8.0 -283.0 2.0 4.0 2.0 3.0 6.0 0.0 5.0 3.0 7.0 1.0 8.0 8.0 1.0 5.0 1.0 0.0 10.0 1.0 1.0 3.0 3.0 8.0 2.0 8.0 0.0 1.0 3.0 4.0 2.0 3.0 7.0 2.0 0.0 9.0 9.0 1.0 5.0 5.0 8.0 5.0 7.0 0.0 3.0 1.0 9.0 5.0 2.0 3.0 8.0 3.0 6.0 10.0 6.0 5.0 2.0 4.0 5.0 
6.0 3.0 0.0 3.0 3.0 7.0 6.0 2.0 -312.0 8.0 1.0 0.0 7.0 4.0 8.0 10.0 9.0 5.0 6.0 5.0 8.0 7.0 0.0 4.0 3.0 3.0 9.0 9.0 3.0 1.0 2.0 5.0 3.0 3.0 0.0 0.0 6.0 3.0 10.0 6.0 6.0 9.0 6.0 1.0 1.0 9.0 3.0 0.0 9.0 5.0 7.0 10.0 5.0 3.0 0.0 9.0 9.0 10.0 5.0 2.0 0.0 2.0 6.0 8.0 9.0 
4.0 6.0 2.0 6.0 6.0 2.0 4.0 4.0 8.0 -339.0 5.0 0.0 10.0 2.0 7.0 7.0 4.0 9.0 9.0 5.0 8.0 6.0 1.0 5.0 6.0 8.0 7.0 9.0 4.0 3.0 1.0 5.0 9.0 6.0 1.0 9.0 0.0 5.0 9.0 1.0 3.0 7.0 0.0 0.0 9.0 4.0 10.0 6.0 8.0 10.0 6.0 7.0 0.0 3.0 10.0 7.0 0.0 1.0 8.0 5.0 9.0 9.0 4.0 8.0 2.0 
3.0 1.0 8.0 2.0 8.0 9.0 8.0 2.0 1.0 5.0 -313.0 10.0 4.0 3.0 2.0 4.0 10.0 1.0 10.0 10.0 9.0 8.0 1.0 2.0 8.0 1.0 5.0 1.0 6.0 0.0 2.0 8.0 0.0 4.0 10.0 2.0 2.0 5.0 5.0 7.0 10.0 10.0 0.0 7.0 8.0 10.0 1.0 5.0 3.0 4.0 5.0 7.0 3.0 1.0 6.0 7.0 1.0 3.0 1.0 9.0 0.0 6.0 5.0 10.0 4.0 
2.0 8.0 2.0 3.0 2.0 1.0 7.0 3.0 0.0 0.0 10.0 -279.0 0.0 3.0 6.0 3.0 0.0 9.0 8.0 0.0 2.0 3.0 6.0 8.0 0.0 2.0 2.0 0.0 0.0 7.0 9.0 10.0 4.0 9.0 10.0 2.0 4.0 8.0 1.0 0.0 10.0 10.0 10.0 6.0 9.0 5.0 4.0 2.0 5.0 6.0 3.0 2.0 6.0 0.0 4.0 8.0 0.0 6.0 4.0 3.0 0.0 7.0 7.0 8.0 0.0 
5.0 5.0 3.0 5.0 1.0 3.0 1.0 6.0 7.0 10.0 4.0 0.0 -316.0 4.0 9.0 1.0 10.0 1.0 7.0 7.0 3.0 7.0 8.0 0.0 2.0 7.0 6.0 6.0 5.0 3.0 7.0 0.0 7.0 8.0 6.0 3.0 1.0 7.0 3.0 10.0 2.0 8.0 2.0 4.0 1.0 1.0 3.0 6.0 2.0 2.0 5.0 6.0 8.0 7.0 4.0 8.0 5.0 9.0 4.0 10.0 0.0 8.0 7.0 7.0 9.0 
5.0 8.0 7.0 5.0 0.0 3.0 4.0 0.0 4.0 2.0 3.0 3.0 4.0 -321.0 2.0 10.0 7.0 8.0 9.0 8.0 0.0 4.0 1.0 5.0 5.0 7.0 2.0 10.0 5.0 1.0 1.0 5.0 0.0 6.0 6.0 9.0 7.0 4.0 4.0 5.0 1.0 5.0 10.0 4.0 6.0 6.0 5.0 8.0 6.0 7.0 8.0 2.0 3.0 8.0 4.0 10.0 7.0 0.0 7.0 3.0 8.0 3.0 5.0 9.0 7.0 
10.0 5.0 7.0 4.0 1.0 10.0 3.0 5.0 8.0 7.0 2.0 6.0 9.0 2.0 -319.0 5.0 3.0 0.0 4.0 3.0 8.0 4.0 8.0 10.0 8.0 1.0 10.0 0.0 1.0 3.0 10.0 6.0 10.0 10.0 3.0 1.0 9.0 4.0 4.0 5.0 1.0 10.0 2.0 0.0 3.0 7.0 3.0 9.0 3.0 7.0 5.0 6.0 6.0 7.0 2.0 4.0 0.0 7.0 0.0 8.0 2.0 5.0 5.0 1.0 7.0 
3.0 8.0 5.0 9.0 9.0 0.0 3.0 3.0 10.0 7.0 4.0 3.0 1.0 10.0 5.0 -346.0 10.0 9.0 7.0 9.0 1.0 9.0 9.0 8.0 0.0 5.0 5.0 8.0 9.0 0.0 3.0 9.0 8.0 0.0 8.0 4.0 10.0 8.0 6.0 1.0 3.0 4.0 10.0 1.0 1.0 5.0 2.0 1.0 4.0 8.0 6.0 3.0 8.0 2.0 9.0 5.0 7.0 9.0 7.0 6.0 2.0 7.0 3.0 6.0 1.0 
5.0 5.0 5.0 5.0 10.0 7.0 8.0 7.0 9.0 4.0 10.0 0.0 10.0 7.0 3.0 10.0 -365.0 2.0 6.0 3.0 10.0 9.0 8.0 3.0 10.0 4.0 4.0 8.0 5.0 10.0 1.0 9.0 4.0 3.0 2.0 7.0 1.0 5.0 10.0 0.0 4.0 7.0 0.0 6.0 4.0 2.0 7.0 7.0 8.0 6.0 8.0 6.0 5.0 9.0 0.0 5.0 10.0 8.0 5.0 6.0 9.0 0.0 4.0 3.0 7.0 
9.0 4.0 5.0 0.0 2.0 3.0 10.0 1.0 5.0 9.0 1.0 9.0 1.0 8.0 0.0 9.0 2.0 -346.0 6.0 5.0 9.0 10.0 9.0 10.0 6.0 2.0 6.0 1.0 0.0 0.0 8.0 7.0 3.0 2.0 9.0 7.0 8.0 10.0 8.0 2.0 10.0 10.0 5.0 8.0 5.0 7.0 2.0 0.0 2.0 3.0 4.0 4.0 5.0 10.0 10.0 2.0 9.0 3.0 4.0 1.0 9.0 7.0 10.0 6.0 4.0 
6.0 10.0 3.0 6.0 7.0 9.0 3.0 8.0 6.0 9.0 10.0 8.0 7.0 9.0 4.0 7.0 6.0 6.0 -345.0 2.0 5.0 0.0 0.0 0.0 9.0 8.0 3.0 0.0 4.0 9.0 5.0 5.0 7.0 9.0 6.0 9.0 6.0 6.0 7.0 5.0 5.0 2.0 3.0 6.0 6.0 10.0 5.0 1.0 6.0 4.0 4.0 10.0 9.0 7.0 6.0 4.0 5.0 1.0 6.0 0.0 0.0 4.0 5.0 0.0 7.0 
4.0 4.0 6.0 4.0 4.0 8.0 5.0 8.0 5.0 5.0 10.0 0.0 7.0 8.0 3.0 9.0 3.0 5.0 2.0 -367.0 10.0 4.0 3.0 2.0 1.0 10.0 8.0 5.0 9.0 10.0 8.0 8.0 2.0 10.0 9.0 7.0 5.0 5.0 3.0 2.0 9.0 7.0 10.0 3.0 8.0 9.0 8.0 7.0 0.0 0.0 4.0 9.0 9.0 1.0 6.0 8.0 3.0 10.0 9.0 7.0 4.0 8.0 3.0 2.0 2.0 
0.0 7.0 4.0 5.0 8.0 5.0 10.0 1.0 8.0 8.0 9.0 2.0 3.0 0.0 8.0 1.0 10.0 9.0 5.0 10.0 -319.0 6.0 1.0 7.0 9.0 4.0 4.0 9.0 2.0 5.0 8.0 3.0 7.0 3.0 3.0 10.0 5.0 5.0 7.0 0.0 4.0 10.0 10.0 0.0 2.0 3.0 2.0 6.0 2.0 2.0 2.0 3.0 1.0 7.0 9.0 10.0 4.0 3.0 0.0 0.0 4.0 0.0 10.0 8.0 6.0 
0.0 2.0 4.0 6.0 6.0 4.0 5.0 5.0 7.0 6.0 8.0 3.0 7.0 4.0 4.0 9.0 9.0 10.0 0.0 4.0 6.0 -304.0 3.0 2.0 1.0 4.0 2.0 7.0 4.0 7.0 6.0 5.0 10.0 6.0 1.0 0.0 3.0 0.0 10.0 10.0 7.0 0.0 9.0 1.0 7.0 8.0 6.0 8.0 5.0 2.0 9.0 2.0 0.0 2.0 1.0 6.0 2.0 8.0 10.0 3.0 2.0 2.0 2.0 3.0 9.0 
3.0 10.0 3.0 7.0 2.0 9.0 2.0 1.0 0.0 1.0 1.0 6.0 8.0 1.0 8.0 9.0 8.0 9.0 0.0 3.0 1.0 3.0 -325.0 6.0 2.0 10.0 10.0 9.0 0.0 3.0 1.0 9.0 6.0 6.0 1.0 10.0 10.0 4.0 10.0 1.0 6.0 8.0 7.0 3.0 2.0 7.0 9.0 0.0 10.0 7.0 9.0 7.0 3.0 5.0 1.0 10.0 2.0 9.0 9.0 2.0 2.0 5.0 3.0 4.0 2.0 
3.0 4.0 5.0 6.0 3.0 2.0 10.0 0.0 4.0 5.0 2.0 8.0 0.0 5.0 10.0 8.0 3.0 10.0 0.0 2.0 7.0 2.0 6.0 -318.0 7.0 7.0 8.0 9.0 7.0 3.0 4.0 7.0 4.0 0.0 5.0 8.0 10.0 10.0 2.0 0.0 8.0 9.0 10.0 4.0 9.0 1.0 1.0 1.0 2.0 0.0 6.0 8.0 5.0 1.0 4.0 8.0 7.0 1.0 3.0 9.0 4.0 3.0 2.0 10.0 6.0 
4.0 8.0 8.0 3.0 6.0 2.0 0.0 10.0 3.0 6.0 8.0 0.0 2.0 5.0 8.0 0.0 10.0 6.0 9.0 1.0 9.0 1.0 2.0 7.0 -319.0 5.0 2.0 0.0 10.0 4.0 1.0 5.0 6.0 2.0 3.0 2.0 4.0 9.0 8.0 3.0 9.0 3.0 0.0 5.0 2.0 8.0 10.0 1.0 8.0 6.0 0.0 7.0 10.0 7.0 7.0 6.0 8.0 5.0 10.0 4.0 2.0 1.0 10.0 6.0 2.0 
9.0 6.0 9.0 0.0 0.0 6.0 0.0 1.0 3.0 8.0 1.0 2.0 7.0 7.0 1.0 5.0 4.0 2.0 8.0 10.0 4.0 4.0 10.0 7.0 5.0 -270.0 1.0 8.0 5.0 9.0 8.0 7.0 3.0 8.0 6.0 7.0 0.0 1.0 7.0 9.0 3.0 6.0 5.0 5.0 0.0 3.0 0.0 5.0 4.0 3.0 2.0 0.0 0.0 4.0 2.0 1.0 1.0 5.0 3.0 1.0 4.0 9.0 3.0 1.0 2.0 
2.0 8.0 4.0 6.0 9.0 5.0 4.0 1.0 9.0 7.0 5.0 2.0 6.0 2.0 10.0 5.0 4.0 6.0 3.0 8.0 4.0 2.0 10.0 8.0 2.0 1.0 -329.0 6.0 0.0 2.0 2.0 7.0 10.0 4.0 10.0 10.0 1.0 3.0 8.0 4.0 8.0 5.0 4.0 7.0 3.0 2.0 10.0 3.0 7.0 6.0 8.0 3.0 0.0 2.0 10.0 7.0 6.0 3.0 9.0 9.0 1.0 1.0 8.0 4.0 3.0 
6.0 7.0 9.0 9.0 8.0 1.0 1.0 3.0 9.0 9.0 1.0 0.0 6.0 10.0 0.0 8.0 8.0 1.0 0.0 5.0 9.0 7.0 9.0 9.0 0.0 8.0 6.0 -345.0 5.0 10.0 9.0 2.0 5.0 7.0 5.0 8.0 6.0 8.0 6.0 1.0 7.0 10.0 6.0 0.0 1.0 7.0 7.0 6.0 7.0 1.0 2.0 1.0 6.0 9.0 7.0 9.0 0.0 0.0 1.0 6.0 10.0 4.0 7.0 6.0 4.0 
0.0 8.0 4.0 9.0 9.0 10.0 3.0 3.0 3.0 4.0 6.0 0.0 5.0 5.0 1.0 9.0 5.0 0.0 4.0 9.0 2.0 4.0 0.0 7.0 10.0 5.0 0.0 5.0 -300.0 8.0 6.0 0.0 10.0 2.0 3.0 9.0 3.0 3.0 10.0 8.0 0.0 6.0 5.0 10.0 6.0 1.0 1.0 3.0 1.0 4.0 0.0 2.0 4.0 10.0 4.0 7.0 2.0 9.0 9.0 0.0 5.0 4.0 10.0 2.0 3.0 
0.0 6.0 10.0 9.0 8.0 6.0 8.0 8.0 1.0 3.0 0.0 7.0 3.0 1.0 3.0 0.0 10.0 0.0 9.0 10.0 5.0 7.0 3.0 3.0 4.0 9.0 2.0 10.0 8.0 -364.0 2.0 10.0 8.0 7.0 7.0 10.0 10.0 7.0 5.0 0.0 7.0 4.0 8.0 5.0 4.0 8.0 10.0 10.0 10.0 7.0 5.0 7.0 3.0 2.0 1.0 8.0 4.0 3.0 1.0 10.0 10.0 0.0 7.0 5.0 6.0 
9.0 2.0 9.0 5.0 10.0 2.0 4.0 2.0 2.0 1.0 2.0 9.0 7.0 1.0 10.0 3.0 1.0 8.0 5.0 8.0 8.0 6.0 1.0 4.0 1.0 8.0 2.0 9.0 6.0 2.0 -318.0 7.0 3.0 5.0 9.0 9.0 1.0 10.0 6.0 3.0 4.0 7.0 9.0 7.0 9.0 1.0 9.0 7.0 5.0 4.0 1.0 5.0 5.0 1.0 7.0 8.0 3.0 10.0 2.0 5.0 8.0 0.0 1.0 0.0 0.0 
1.0 5.0 4.0 9.0 0.0 4.0 8.0 8.0 5.0 5.0 8.0 10.0 0.0 5.0 6.0 9.0 9.0 7.0 5.0 8.0 3.0 5.0 9.0 7.0 5.0 7.0 7.0 2.0 0.0 10.0 7.0 -334.0 3.0 1.0 4.0 1.0 10.0 7.0 5.0 5.0 9.0 9.0 8.0 0.0 4.0 0.0 2.0 1.0 5.0 5.0 6.0 9.0 10.0 5.0 5.0 7.0 10.0 1.0 2.0 0.0 4.0 6.0 3.0 6.0 3.0 
6.0 2.0 5.0 0.0 1.0 3.0 7.0 0.0 3.0 9.0 0.0 4.0 7.0 0.0 10.0 8.0 4.0 3.0 7.0 2.0 7.0 10.0 6.0 4.0 6.0 3.0 10.0 5.0 10.0 8.0 3.0 3.0 -299.0 3.0 10.0 0.0 5.0 3.0 2.0 7.0 4.0 9.0 2.0 7.0 9.0 10.0 7.0 2.0 4.0 7.0 1.0 8.0 0.0 1.0 0.0 3.0 4.0 3.0 0.0 6.0 9.0 10.0 5.0 0.0 2.0 
10.0 3.0 6.0 0.0 9.0 1.0 8.0 1.0 3.0 6.0 4.0 9.0 8.0 6.0 10.0 0.0 3.0 2.0 9.0 10.0 3.0 6.0 6.0 0.0 2.0 8.0 4.0 7.0 2.0 7.0 5.0 1.0 3.0 -330.0 1.0 3.0 7.0 1.0 7.0 0.0 2.0 8.0 6.0 8.0 7.0 4.0 9.0 4.0 4.0 6.0 10.0 3.0 8.0 8.0 5.0 2.0 9.0 8.0 1.0 9.0 8.0 8.0 4.0 7.0 1.0 
1.0 8.0 8.0 6.0 10.0 7.0 7.0 3.0 0.0 1.0 10.0 10.0 6.0 6.0 3.0 8.0 2.0 9.0 6.0 9.0 3.0 1.0 1.0 5.0 3.0 6.0 10.0 5.0 3.0 7.0 9.0 4.0 10.0 1.0 -363.0 0.0 5.0 9.0 9.0 9.0 2.0 6.0 3.0 1.0 10.0 10.0 8.0 4.0 7.0 9.0 6.0 4.0 10.0 9.0 3.0 1.0 8.0 4.0 6.0 3.0 9.0 8.0 7.0 1.0 4.0 
9.0 5.0 6.0 6.0 3.0 2.0 6.0 4.0 0.0 9.0 2.0 2.0 3.0 9.0 1.0 4.0 7.0 7.0 9.0 7.0 10.0 0.0 10.0 8.0 2.0 7.0 10.0 8.0 9.0 10.0 9.0 1.0 0.0 3.0 0.0 -319.0 10.0 0.0 4.0 6.0 1.0 3.0 5.0 6.0 2.0 2.0 0.0 3.0 0.0 2.0 9.0 8.0 2.0 2.0 5.0 7.0 9.0 6.0 7.0 1.0 7.0 9.0 6.0 7.0 2.0 
0.0 5.0 7.0 1.0 10.0 8.0 0.0 2.0 6.0 0.0 2.0 4.0 1.0 7.0 9.0 10.0 1.0 8.0 6.0 5.0 5.0 3.0 10.0 10.0 4.0 0.0 1.0 6.0 3.0 10.0 1.0 10.0 5.0 7.0 5.0 10.0 -344.0 10.0 1.0 0.0 3.0 4.0 3.0 10.0 3.0 9.0 2.0 5.0 6.0 2.0 6.0 8.0 7.0 10.0 1.0 7.0 10.0 0.0 4.0 10.0 5.0 9.0 10.0 9.0 8.0 
0.0 10.0 7.0 10.0 9.0 5.0 2.0 3.0 3.0 5.0 5.0 8.0 7.0 4.0 4.0 8.0 5.0 10.0 6.0 5.0 5.0 0.0 4.0 10.0 9.0 1.0 3.0 8.0 3.0 7.0 10.0 7.0 3.0 1.0 9.0 0.0 10.0 -300.0 0.0 2.0 5.0 6.0 0.0 2.0 1.0 4.0 10.0 5.0 10.0 5.0 0.0 8.0 1.0 8.0 4.0 1.0 3.0 6.0 3.0 3.0 0.0 3.0 0.0 1.0 3.0 
5.0 4.0 3.0 8.0 6.0 3.0 6.0 7.0 10.0 9.0 5.0 1.0 3.0 4.0 4.0 6.0 10.0 8.0 7.0 3.0 7.0 10.0 10.0 2.0 8.0 7.0 8.0 6.0 10.0 5.0 6.0 5.0 2.0 7.0 9.0 4.0 1.0 0.0 -372.0 6.0 7.0 9.0 8.0 4.0 9.0 4.0 8.0 4.0 10.0 5.0 4.0 5.0 8.0 2.0 7.0 2.0 3.0 10.0 9.0 4.0 9.0 3.0 5.0 0.0 8.0 
0.0 8.0 8.0 6.0 2.0 5.0 3.0 2.0 6.0 1.0 7.0 0.0 10.0 5.0 5.0 1.0 0.0 2.0 5.0 2.0 0.0 10.0 1.0 0.0 3.0 9.0 4.0 1.0 8.0 0.0 3.0 5.0 7.0 0.0 9.0 6.0 0.0 2.0 6.0 -303.0 1.0 8.0 7.0 9.0 10.0 7.0 7.0 8.0 2.0 7.0 9.0 10.0 1.0 5.0 5.0 6.0 9.0 1.0 5.0 9.0 0.0 4.0 3.0 10.0 8.0 
4.0 10.0 2.0 0.0 2.0 3.0 7.0 0.0 6.0 3.0 10.0 10.0 2.0 1.0 1.0 3.0 4.0 10.0 5.0 9.0 4.0 7.0 6.0 8.0 9.0 3.0 8.0 7.0 0.0 7.0 4.0 9.0 4.0 2.0 2.0 1.0 3.0 5.0 7.0 1.0 -328.0 0.0 9.0 3.0 10.0 10.0 4.0 4.0 0.0 6.0 4.0 2.0 8.0 10.0 9.0 9.0 6.0 7.0 7.0 8.0 3.0 2.0 5.0 4.0 9.0 
1.0 8.0 5.0 10.0 2.0 9.0 1.0 9.0 9.0 7.0 10.0 10.0 8.0 5.0 10.0 4.0 7.0 10.0 2.0 7.0 10.0 0.0 8.0 9.0 3.0 6.0 5.0 10.0 6.0 4.0 7.0 9.0 9.0 8.0 6.0 3.0 4.0 6.0 9.0 8.0 0.0 -365.0 1.0 0.0 2.0 3.0 10.0 9.0 3.0 6.0 6.0 5.0 5.0 7.0 1.0 1.0 8.0 0.0 0.0 4.0 10.0 0.0 2.0 9.0 9.0 
1.0 5.0 8.0 6.0 2.0 0.0 8.0 9.0 6.0 0.0 0.0 10.0 2.0 10.0 2.0 10.0 0.0 5.0 3.0 10.0 10.0 9.0 7.0 10.0 0.0 5.0 4.0 6.0 5.0 8.0 9.0 8.0 2.0 6.0 3.0 5.0 3.0 0.0 8.0 7.0 9.0 1.0 -316.0 2.0 0.0 10.0 0.0 0.0 6.0 0.0 3.0 2.0 4.0 1.0 7.0 10.0 7.0 8.0 7.0 10.0 3.0 0.0 5.0 4.0 5.0 
0.0 5.0 7.0 2.0 8.0 7.0 6.0 1.0 1.0 0.0 7.0 6.0 4.0 4.0 0.0 1.0 6.0 8.0 6.0 3.0 0.0 1.0 3.0 4.0 5.0 5.0 7.0 0.0 10.0 5.0 7.0 0.0 7.0 8.0 1.0 6.0 10.0 2.0 4.0 9.0 3.0 0.0 2.0 -294.0 2.0 4.0 2.0 6.0 1.0 7.0 4.0 8.0 9.0 8.0 6.0 7.0 4.0 4.0 9.0 3.0 4.0 7.0 7.0 9.0 2.0 
3.0 2.0 1.0 0.0 6.0 10.0 4.0 5.0 1.0 9.0 8.0 9.0 1.0 6.0 3.0 1.0 4.0 5.0 6.0 8.0 2.0 7.0 2.0 9.0 2.0 0.0 3.0 1.0 6.0 4.0 9.0 4.0 9.0 7.0 10.0 2.0 3.0 1.0 9.0 10.0 10.0 2.0 0.0 2.0 -288.0 2.0 6.0 9.0 3.0 7.0 0.0 1.0 5.0 1.0 3.0 6.0 0.0 3.0 5.0 8.0 1.0 2.0 6.0 5.0 9.0 
8.0 3.0 5.0 4.0 5.0 4.0 2.0 5.0 9.0 4.0 10.0 5.0 1.0 6.0 7.0 5.0 2.0 7.0 10.0 9.0 3.0 8.0 7.0 1.0 8.0 3.0 2.0 7.0 1.0 8.0 1.0 0.0 10.0 4.0 10.0 2.0 9.0 4.0 4.0 7.0 10.0 3.0 10.0 4.0 2.0 -359.0 5.0 6.0 0.0 9.0 10.0 9.0 4.0 10.0 5.0 3.0 6.0 9.0 10.0 9.0 5.0 10.0 1.0 1.0 8.0 
9.0 9.0 7.0 6.0 0.0 8.0 10.0 8.0 3.0 10.0 1.0 4.0 3.0 5.0 3.0 2.0 7.0 2.0 5.0 8.0 2.0 6.0 9.0 1.0 10.0 0.0 10.0 7.0 1.0 10.0 9.0 2.0 7.0 9.0 8.0 0.0 2.0 10.0 8.0 7.0 4.0 10.0 0.0 2.0 6.0 5.0 -372.0 7.0 7.0 10.0 6.0 10.0 5.0 8.0 9.0 1.0 3.0 5.0 1.0 10.0 7.0 6.0 8.0 4.0 10.0 
6.0 5.0 8.0 0.0 4.0 7.0 3.0 5.0 0.0 6.0 5.0 2.0 6.0 8.0 9.0 1.0 7.0 0.0 1.0 7.0 6.0 8.0 0.0 1.0 1.0 5.0 3.0 6.0 3.0 10.0 7.0 1.0 2.0 4.0 4.0 3.0 5.0 5.0 4.0 8.0 4.0 9.0 0.0 6.0 9.0 6.0 7.0 -292.0 3.0 9.0 2.0 0.0 2.0 0.0 0.0 6.0 1.0 3.0 1.0 9.0 3.0 10.0 10.0 6.0 10.0 
3.0 3.0 10.0 7.0 1.0 10.0 2.0 7.0 9.0 8.0 3.0 5.0 2.0 6.0 3.0 4.0 8.0 2.0 6.0 0.0 2.0 5.0 10.0 2.0 8.0 4.0 7.0 7.0 1.0 10.0 5.0 5.0 4.0 4.0 7.0 0.0 6.0 10.0 10.0 2.0 0.0 3.0 6.0 1.0 3.0 0.0 7.0 3.0 -284.0 5.0 7.0 0.0 3.0 5.0 3.0 3.0 4.0 0.0 2.0 8.0 5.0 0.0 0.0 2.0 6.0 
1.0 8.0 9.0 10.0 8.0 9.0 8.0 0.0 5.0 10.0 4.0 6.0 2.0 7.0 7.0 8.0 6.0 3.0 4.0 0.0 2.0 2.0 7.0 0.0 6.0 3.0 6.0 1.0 4.0 7.0 4.0 5.0 7.0 6.0 9.0 2.0 2.0 5.0 5.0 7.0 6.0 6.0 0.0 7.0 7.0 9.0 10.0 9.0 5.0 -320.0 6.0 6.0 1.0 1.0 5.0 8.0 6.0 2.0 2.0 3.0 2.0 1.0 8.0 4.0 1.0 
9.0 8.0 6.0 0.0 7.0 8.0 10.0 3.0 7.0 6.0 5.0 3.0 5.0 8.0 5.0 6.0 8.0 4.0 4.0 4.0 2.0 9.0 9.0 6.0 0.0 2.0 8.0 2.0 0.0 5.0 1.0 6.0 1.0 10.0 6.0 9.0 6.0 0.0 4.0 9.0 4.0 6.0 3.0 4.0 0.0 10.0 6.0 2.0 7.0 6.0 -329.0 7.0 3.0 10.0 6.0 4.0 3.0 0.0 1.0 5.0 10.0 5.0 8.0 4.0 4.0 
4.0 5.0 8.0 2.0 7.0 6.0 2.0 1.0 10.0 7.0 7.0 2.0 6.0 2.0 6.0 3.0 6.0 4.0 10.0 9.0 3.0 2.0 7.0 8.0 7.0 0.0 3.0 1.0 2.0 7.0 5.0 9.0 8.0 3.0 4.0 8.0 8.0 8.0 5.0 10.0 2.0 5.0 2.0 8.0 1.0 9.0 10.0 0.0 0.0 6.0 7.0 -343.0 8.0 6.0 6.0 3.0 9.0 0.0 5.0 9.0 7.0 7.0 10.0 4.0 4.0 
3.0 1.0 8.0 6.0 5.0 2.0 4.0 9.0 5.0 0.0 3.0 6.0 8.0 3.0 6.0 8.0 5.0 5.0 9.0 9.0 1.0 0.0 3.0 5.0 10.0 0.0 0.0 6.0 4.0 3.0 5.0 10.0 0.0 8.0 10.0 2.0 7.0 1.0 8.0 1.0 8.0 5.0 4.0 9.0 5.0 4.0 5.0 2.0 3.0 1.0 3.0 8.0 -279.0 5.0 6.0 2.0 0.0 6.0 1.0 2.0 0.0 5.0 0.0 5.0 1.0 
10.0 1.0 2.0 7.0 4.0 9.0 6.0 5.0 3.0 3.0 1.0 0.0 7.0 8.0 7.0 2.0 9.0 10.0 7.0 1.0 7.0 2.0 5.0 1.0 7.0 4.0 2.0 9.0 10.0 2.0 1.0 5.0 1.0 8.0 9.0 2.0 10.0 8.0 2.0 5.0 10.0 7.0 1.0 8.0 1.0 10.0 8.0 0.0 5.0 1.0 10.0 6.0 5.0 -331.0 4.0 9.0 7.0 9.0 2.0 5.0 0.0 7.0 7.0 2.0 5.0 
6.0 6.0 4.0 10.0 10.0 5.0 4.0 2.0 0.0 10.0 6.0 4.0 4.0 4.0 2.0 9.0 0.0 10.0 6.0 6.0 9.0 1.0 1.0 4.0 7.0 2.0 10.0 7.0 4.0 1.0 7.0 5.0 0.0 5.0 3.0 5.0 1.0 4.0 7.0 5.0 9.0 1.0 7.0 6.0 3.0 5.0 9.0 0.0 3.0 5.0 6.0 6.0 6.0 4.0 -305.0 2.0 6.0 2.0 8.0 9.0 2.0 5.0 0.0 0.0 5.0 
8.0 5.0 5.0 3.0 3.0 5.0 5.0 3.0 9.0 7.0 7.0 8.0 8.0 10.0 4.0 5.0 5.0 2.0 4.0 8.0 10.0 6.0 10.0 8.0 6.0 1.0 7.0 9.0 7.0 8.0 8.0 7.0 3.0 2.0 1.0 7.0 7.0 1.0 2.0 6.0 9.0 1.0 10.0 7.0 6.0 3.0 1.0 6.0 3.0 8.0 4.0 3.0 2.0 9.0 2.0 -352.0 10.0 1.0 7.0 7.0 7.0 1.0 1.0 4.0 10.0 
2.0 0.0 4.0 0.0 6.0 7.0 9.0 8.0 9.0 0.0 1.0 0.0 5.0 7.0 0.0 7.0 10.0 9.0 5.0 3.0 4.0 2.0 2.0 7.0 8.0 1.0 6.0 0.0 2.0 4.0 3.0 10.0 4.0 9.0 8.0 9.0 10.0 3.0 3.0 9.0 6.0 8.0 7.0 4.0 0.0 6.0 3.0 1.0 4.0 6.0 3.0 9.0 0.0 7.0 6.0 10.0 -322.0 7.0 9.0 8.0 6.0 4.0 8.0 4.0 0.0 
10.0 0.0 9.0 6.0 8.0 3.0 2.0 3.0 10.0 1.0 3.0 6.0 9.0 0.0 7.0 9.0 8.0 3.0 1.0 10.0 3.0 8.0 9.0 1.0 5.0 5.0 3.0 0.0 9.0 3.0 10.0 1.0 3.0 8.0 4.0 6.0 0.0 6.0 10.0 1.0 7.0 0.0 8.0 4.0 3.0 9.0 5.0 3.0 0.0 2.0 0.0 0.0 6.0 9.0 2.0 1.0 7.0 -318.0 8.0 4.0 2.0 8.0 9.0 8.0 10.0 
6.0 0.0 5.0 7.0 8.0 0.0 1.0 6.0 5.0 8.0 1.0 4.0 4.0 7.0 0.0 7.0 5.0 4.0 6.0 9.0 0.0 10.0 9.0 3.0 10.0 3.0 9.0 1.0 9.0 1.0 2.0 2.0 0.0 1.0 6.0 7.0 4.0 3.0 9.0 5.0 7.0 0.0 7.0 9.0 5.0 10.0 1.0 1.0 2.0 2.0 1.0 5.0 1.0 2.0 8.0 7.0 9.0 8.0 -309.0 8.0 5.0 7.0 4.0 5.0 8.0 
5.0 0.0 8.0 0.0 5.0 2.0 7.0 10.0 2.0 5.0 9.0 3.0 10.0 3.0 8.0 6.0 6.0 1.0 0.0 7.0 0.0 3.0 2.0 9.0 4.0 1.0 9.0 6.0 0.0 10.0 5.0 0.0 6.0 9.0 3.0 1.0 10.0 3.0 4.0 9.0 8.0 4.0 10.0 3.0 8.0 9.0 10.0 9.0 8.0 3.0 5.0 9.0 2.0 5.0 9.0 7.0 8.0 4.0 8.0 -345.0 1.0 7.0 6.0 1.0 10.0 
9.0 0.0 7.0 9.0 6.0 8.0 1.0 6.0 0.0 9.0 0.0 0.0 0.0 8.0 2.0 2.0 9.0 9.0 0.0 4.0 4.0 2.0 2.0 4.0 2.0 4.0 1.0 10.0 5.0 10.0 8.0 4.0 9.0 8.0 9.0 7.0 5.0 0.0 9.0 0.0 3.0 10.0 3.0 4.0 1.0 5.0 7.0 3.0 5.0 2.0 10.0 7.0 0.0 0.0 2.0 7.0 6.0 2.0 5.0 1.0 -298.0 3.0 6.0 4.0 10.0 
8.0 0.0 9.0 3.0 7.0 10.0 3.0 5.0 2.0 9.0 6.0 7.0 8.0 3.0 5.0 7.0 0.0 7.0 4.0 8.0 0.0 2.0 5.0 3.0 1.0 9.0 1.0 4.0 4.0 0.0 0.0 6.0 10.0 8.0 8.0 9.0 9.0 3.0 3.0 4.0 2.0 0.0 0.0 7.0 2.0 10.0 6.0 10.0 0.0 1.0 5.0 7.0 5.0 7.0 5.0 1.0 4.0 8.0 7.0 7.0 3.0 -304.0 2.0 0.0 5.0 
4.0 0.0 5.0 2.0 0.0 0.0 2.0 2.0 6.0 4.0 5.0 7.0 7.0 5.0 5.0 3.0 4.0 10.0 5.0 3.0 10.0 2.0 3.0 2.0 10.0 3.0 8.0 7.0 10.0 7.0 1.0 3.0 5.0 4.0 7.0 6.0 10.0 0.0 5.0 3.0 5.0 2.0 5.0 7.0 6.0 1.0 8.0 10.0 0.0 8.0 8.0 10.0 0.0 7.0 0.0 1.0 8.0 9.0 4.0 6.0 6.0 2.0 -307.0 0.0 9.0 
2.0 0.0 0.0 6.0 1.0 7.0 2.0 4.0 8.0 8.0 10.0 8.0 7.0 9.0 1.0 6.0 3.0 6.0 0.0 2.0 8.0 3.0 4.0 10.0 6.0 1.0 4.0 6.0 2.0 5.0 0.0 6.0 0.0 7.0 1.0 7.0 9.0 1.0 0.0 10.0 4.0 9.0 4.0 9.0 5.0 1.0 4.0 6.0 2.0 4.0 4.0 4.0 5.0 2.0 0.0 4.0 4.0 8.0 5.0 1.0 4.0 0.0 0.0 -271.0 2.0 
8.0 0.0 9.0 0.0 2.0 5.0 3.0 5.0 9.0 2.0 4.0 0.0 9.0 7.0 7.0 1.0 7.0 4.0 7.0 2.0 6.0 9.0 2.0 6.0 2.0 2.0 3.0 4.0 3.0 6.0 0.0 3.0 2.0 1.0 4.0 2.0 8.0 3.0 8.0 8.0 9.0 9.0 5.0 2.0 9.0 8.0 10.0 10.0 6.0 1.0 4.0 4.0 1.0 5.0 5.0 10.0 0.0 10.0 8.0 10.0 10.0 5.0 9.0 2.0 -325.0 

